code/vi_33_20_10.sol
Optimal (within gap tolerance) - objective value -13 - solution time 0
8 x(2,1,13) 1 0
9 x(1,1,8) 1 0
25 x(2,2,8) 1 0
26 x(1,2,0) 1 0
38 x(2,3,17) 1 0
39 x(1,3,3) 1 0
47 C 13 -1
